<number of tasks>
20

<cycle time>
1000

<order strength>
0,184


<task times>
1 197
2 60
3 64
4 211
5 209
6 103
7 104
8 29
9 72
10 136
11 165
12 205
13 94
14 261
15 89
16 168
17 287
18 115
19 293
20 49

<precedence relations>
3,6
3,9
5,7
5,8
5,10
6,11
10,12
10,13
11,16
12,17
13,14
13,15
15,19
16,18
16,20

<end>
